70 0
89 72
87 139
20 56
110 60
51 137
67 125
58 102
117 98
116 126
107 146
31 52
8 85
22 147
46 26
122 21
47 123
50 93
13 33
102 93
127 97
125 61
39 117
14 122
75 88
57 118
46 68
123 45
134 78
138 27
87 94
98 36
106 30
145 63
93 118
108 104
42 52
135 65
132 45
5 46
20 77
51 40
5 140
30 35
82 107
32 65
25 132
24 90
98 58
116 137
62 147